Route #1: 11 24 30 47 39 
Route #2: 40 33 5 7 22 13 
Route #3: 14 46 45 26 36 23 49 
Route #4: 4 2 17 43 41 3 
Route #5: 9 10 48 27 25 42 
Route #6: 28 31 6 44 37 35 15 
Route #7: 21 38 16 8 18 19 
Route #8: 32 20 34 12 29 1 
cost -1
